HUN,8,6,654
4,40,0,27,3,64,1,78,2,10,5,15
4,36,0,75,3,86,2,76,5,47,1,45
5,100,0,65,3,49,1,76,2,51,4,71
2,92,5,93,1,83,3,42,0,75,4,68
4,23,3,24,2,94,0,79,1,59,5,95
3,47,0,8,5,53,4,69,2,56,1,83
5,14,3,54,2,59,4,81,0,28,1,69
5,17,3,90,2,45,4,44,0,87,1,51
